3322
919
2805
3892
2079
1042
2569
2684
1359
3788
1604
3595
1659
1441
4076
3476
479
3687
1455
283
2382
2473
279
1651
2109
3353
188
502
4287
1664
725
2472
301
4088
3265
3174
933
2126
3970
2330
257
3199
1310
1817
742
2109
4138
3115
1664
1997
1596
1540
3758
990
2834
2197
1526
2441
4165
4057
433
4289
295
4160
629
2093
227
267
2267
1180
280
4141
2434
789
584
1414
2845
2303
522
4244
2005
3101
646
2477
290
3313
931
4155
1014
415
172
1841
1445
2053
2299
1226
2084
3374
2474
4061
